c *********************************
c * Circuit generated by BenCGen
c *
c * CarrySelectAdder_26_26_26_InOut_G4T
c *
c * Ports with 1 gate(s): 43
c * Ports with 2 gate(s): 339
c * Ports with 4 gate(s): 10
c * Total gates: 392
c *********************************
p cnf 444 1249
1 81 0
-1 -81 0
1 -80 0
81 -80 0
-1 -81 80 0
80 98 0
-80 -98 0
1 27 -84 0
-1 27 84 0
1 -27 84 0
-1 -27 -84 0
84 80 -53 0
-84 80 53 0
84 -80 53 0
-84 -80 -53 0
80 -85 0
84 -85 0
-80 -84 85 0
27 -86 0
1 -86 0
-27 -1 86 0
-85 83 0
-86 83 0
85 86 -83 0
2 28 -88 0
-2 28 88 0
2 -28 88 0
-2 -28 -88 0
88 83 -54 0
-88 83 54 0
88 -83 54 0
-88 -83 -54 0
83 -89 0
88 -89 0
-83 -88 89 0
28 -90 0
2 -90 0
-28 -2 90 0
-89 87 0
-90 87 0
89 90 -87 0
3 29 -92 0
-3 29 92 0
3 -29 92 0
-3 -29 -92 0
92 87 -55 0
-92 87 55 0
92 -87 55 0
-92 -87 -55 0
87 -93 0
92 -93 0
-87 -92 93 0
29 -94 0
3 -94 0
-29 -3 94 0
-93 91 0
-94 91 0
93 94 -91 0
4 30 -95 0
-4 30 95 0
4 -30 95 0
-4 -30 -95 0
95 91 -56 0
-95 91 56 0
95 -91 56 0
-95 -91 -56 0
91 -96 0
95 -96 0
-91 -95 96 0
30 -97 0
4 -97 0
-30 -4 97 0
-96 82 0
-97 82 0
96 97 -82 0
5 31 -109 0
-5 31 109 0
5 -31 109 0
-5 -31 -109 0
109 80 -99 0
-109 80 99 0
109 -80 99 0
-109 -80 -99 0
80 -110 0
109 -110 0
-80 -109 110 0
31 -111 0
5 -111 0
-31 -5 111 0
-110 108 0
-111 108 0
110 111 -108 0
6 32 -113 0
-6 32 113 0
6 -32 113 0
-6 -32 -113 0
113 108 -100 0
-113 108 100 0
113 -108 100 0
-113 -108 -100 0
108 -114 0
113 -114 0
-108 -113 114 0
32 -115 0
6 -115 0
-32 -6 115 0
-114 112 0
-115 112 0
114 115 -112 0
7 33 -117 0
-7 33 117 0
7 -33 117 0
-7 -33 -117 0
117 112 -101 0
-117 112 101 0
117 -112 101 0
-117 -112 -101 0
112 -118 0
117 -118 0
-112 -117 118 0
33 -119 0
7 -119 0
-33 -7 119 0
-118 116 0
-119 116 0
118 119 -116 0
8 34 -120 0
-8 34 120 0
8 -34 120 0
-8 -34 -120 0
120 116 -102 0
-120 116 102 0
120 -116 102 0
-120 -116 -102 0
116 -121 0
120 -121 0
-116 -120 121 0
34 -122 0
8 -122 0
-34 -8 122 0
-121 107 0
-122 107 0
121 122 -107 0
109 -123 0
113 -123 0
117 -123 0
120 -123 0
-109 -113 -117 -120 123 0
122 -124 0
-122 124 0
5 31 -127 0
-5 31 127 0
5 -31 127 0
-5 -31 -127 0
127 98 -103 0
-127 98 103 0
127 -98 103 0
-127 -98 -103 0
98 -128 0
127 -128 0
-98 -127 128 0
31 -129 0
5 -129 0
-31 -5 129 0
-128 126 0
-129 126 0
128 129 -126 0
6 32 -131 0
-6 32 131 0
6 -32 131 0
-6 -32 -131 0
131 126 -104 0
-131 126 104 0
131 -126 104 0
-131 -126 -104 0
126 -132 0
131 -132 0
-126 -131 132 0
32 -133 0
6 -133 0
-32 -6 133 0
-132 130 0
-133 130 0
132 133 -130 0
7 33 -135 0
-7 33 135 0
7 -33 135 0
-7 -33 -135 0
135 130 -105 0
-135 130 105 0
135 -130 105 0
-135 -130 -105 0
130 -136 0
135 -136 0
-130 -135 136 0
33 -137 0
7 -137 0
-33 -7 137 0
-136 134 0
-137 134 0
136 137 -134 0
8 34 -138 0
-8 34 138 0
8 -34 138 0
-8 -34 -138 0
138 134 -106 0
-138 134 106 0
138 -134 106 0
-138 -134 -106 0
134 -139 0
138 -139 0
-134 -138 139 0
34 -140 0
8 -140 0
-34 -8 140 0
-139 125 0
-140 125 0
139 140 -125 0
127 -141 0
131 -141 0
135 -141 0
138 -141 0
-127 -131 -135 -138 141 0
140 -142 0
-140 142 0
9 35 -171 0
-9 35 171 0
9 -35 171 0
-9 -35 -171 0
171 80 -161 0
-171 80 161 0
171 -80 161 0
-171 -80 -161 0
80 -172 0
171 -172 0
-80 -171 172 0
35 -173 0
9 -173 0
-35 -9 173 0
-172 170 0
-173 170 0
172 173 -170 0
10 36 -175 0
-10 36 175 0
10 -36 175 0
-10 -36 -175 0
175 170 -162 0
-175 170 162 0
175 -170 162 0
-175 -170 -162 0
170 -176 0
175 -176 0
-170 -175 176 0
36 -177 0
10 -177 0
-36 -10 177 0
-176 174 0
-177 174 0
176 177 -174 0
11 37 -179 0
-11 37 179 0
11 -37 179 0
-11 -37 -179 0
179 174 -163 0
-179 174 163 0
179 -174 163 0
-179 -174 -163 0
174 -180 0
179 -180 0
-174 -179 180 0
37 -181 0
11 -181 0
-37 -11 181 0
-180 178 0
-181 178 0
180 181 -178 0
12 38 -182 0
-12 38 182 0
12 -38 182 0
-12 -38 -182 0
182 178 -164 0
-182 178 164 0
182 -178 164 0
-182 -178 -164 0
178 -183 0
182 -183 0
-178 -182 183 0
38 -184 0
12 -184 0
-38 -12 184 0
-183 169 0
-184 169 0
183 184 -169 0
171 -185 0
175 -185 0
179 -185 0
182 -185 0
-171 -175 -179 -182 185 0
184 -186 0
-184 186 0
9 35 -189 0
-9 35 189 0
9 -35 189 0
-9 -35 -189 0
189 98 -165 0
-189 98 165 0
189 -98 165 0
-189 -98 -165 0
98 -190 0
189 -190 0
-98 -189 190 0
35 -191 0
9 -191 0
-35 -9 191 0
-190 188 0
-191 188 0
190 191 -188 0
10 36 -193 0
-10 36 193 0
10 -36 193 0
-10 -36 -193 0
193 188 -166 0
-193 188 166 0
193 -188 166 0
-193 -188 -166 0
188 -194 0
193 -194 0
-188 -193 194 0
36 -195 0
10 -195 0
-36 -10 195 0
-194 192 0
-195 192 0
194 195 -192 0
11 37 -197 0
-11 37 197 0
11 -37 197 0
-11 -37 -197 0
197 192 -167 0
-197 192 167 0
197 -192 167 0
-197 -192 -167 0
192 -198 0
197 -198 0
-192 -197 198 0
37 -199 0
11 -199 0
-37 -11 199 0
-198 196 0
-199 196 0
198 199 -196 0
12 38 -200 0
-12 38 200 0
12 -38 200 0
-12 -38 -200 0
200 196 -168 0
-200 196 168 0
200 -196 168 0
-200 -196 -168 0
196 -201 0
200 -201 0
-196 -200 201 0
38 -202 0
12 -202 0
-38 -12 202 0
-201 187 0
-202 187 0
201 202 -187 0
189 -203 0
193 -203 0
197 -203 0
200 -203 0
-189 -193 -197 -200 203 0
202 -204 0
-202 204 0
13 39 -233 0
-13 39 233 0
13 -39 233 0
-13 -39 -233 0
233 80 -223 0
-233 80 223 0
233 -80 223 0
-233 -80 -223 0
80 -234 0
233 -234 0
-80 -233 234 0
39 -235 0
13 -235 0
-39 -13 235 0
-234 232 0
-235 232 0
234 235 -232 0
14 40 -237 0
-14 40 237 0
14 -40 237 0
-14 -40 -237 0
237 232 -224 0
-237 232 224 0
237 -232 224 0
-237 -232 -224 0
232 -238 0
237 -238 0
-232 -237 238 0
40 -239 0
14 -239 0
-40 -14 239 0
-238 236 0
-239 236 0
238 239 -236 0
15 41 -241 0
-15 41 241 0
15 -41 241 0
-15 -41 -241 0
241 236 -225 0
-241 236 225 0
241 -236 225 0
-241 -236 -225 0
236 -242 0
241 -242 0
-236 -241 242 0
41 -243 0
15 -243 0
-41 -15 243 0
-242 240 0
-243 240 0
242 243 -240 0
16 42 -244 0
-16 42 244 0
16 -42 244 0
-16 -42 -244 0
244 240 -226 0
-244 240 226 0
244 -240 226 0
-244 -240 -226 0
240 -245 0
244 -245 0
-240 -244 245 0
42 -246 0
16 -246 0
-42 -16 246 0
-245 231 0
-246 231 0
245 246 -231 0
233 -247 0
237 -247 0
241 -247 0
244 -247 0
-233 -237 -241 -244 247 0
246 -248 0
-246 248 0
13 39 -251 0
-13 39 251 0
13 -39 251 0
-13 -39 -251 0
251 98 -227 0
-251 98 227 0
251 -98 227 0
-251 -98 -227 0
98 -252 0
251 -252 0
-98 -251 252 0
39 -253 0
13 -253 0
-39 -13 253 0
-252 250 0
-253 250 0
252 253 -250 0
14 40 -255 0
-14 40 255 0
14 -40 255 0
-14 -40 -255 0
255 250 -228 0
-255 250 228 0
255 -250 228 0
-255 -250 -228 0
250 -256 0
255 -256 0
-250 -255 256 0
40 -257 0
14 -257 0
-40 -14 257 0
-256 254 0
-257 254 0
256 257 -254 0
15 41 -259 0
-15 41 259 0
15 -41 259 0
-15 -41 -259 0
259 254 -229 0
-259 254 229 0
259 -254 229 0
-259 -254 -229 0
254 -260 0
259 -260 0
-254 -259 260 0
41 -261 0
15 -261 0
-41 -15 261 0
-260 258 0
-261 258 0
260 261 -258 0
16 42 -262 0
-16 42 262 0
16 -42 262 0
-16 -42 -262 0
262 258 -230 0
-262 258 230 0
262 -258 230 0
-262 -258 -230 0
258 -263 0
262 -263 0
-258 -262 263 0
42 -264 0
16 -264 0
-42 -16 264 0
-263 249 0
-264 249 0
263 264 -249 0
251 -265 0
255 -265 0
259 -265 0
262 -265 0
-251 -255 -259 -262 265 0
264 -266 0
-264 266 0
17 43 -295 0
-17 43 295 0
17 -43 295 0
-17 -43 -295 0
295 80 -285 0
-295 80 285 0
295 -80 285 0
-295 -80 -285 0
80 -296 0
295 -296 0
-80 -295 296 0
43 -297 0
17 -297 0
-43 -17 297 0
-296 294 0
-297 294 0
296 297 -294 0
18 44 -299 0
-18 44 299 0
18 -44 299 0
-18 -44 -299 0
299 294 -286 0
-299 294 286 0
299 -294 286 0
-299 -294 -286 0
294 -300 0
299 -300 0
-294 -299 300 0
44 -301 0
18 -301 0
-44 -18 301 0
-300 298 0
-301 298 0
300 301 -298 0
19 45 -303 0
-19 45 303 0
19 -45 303 0
-19 -45 -303 0
303 298 -287 0
-303 298 287 0
303 -298 287 0
-303 -298 -287 0
298 -304 0
303 -304 0
-298 -303 304 0
45 -305 0
19 -305 0
-45 -19 305 0
-304 302 0
-305 302 0
304 305 -302 0
20 46 -306 0
-20 46 306 0
20 -46 306 0
-20 -46 -306 0
306 302 -288 0
-306 302 288 0
306 -302 288 0
-306 -302 -288 0
302 -307 0
306 -307 0
-302 -306 307 0
46 -308 0
20 -308 0
-46 -20 308 0
-307 293 0
-308 293 0
307 308 -293 0
295 -309 0
299 -309 0
303 -309 0
306 -309 0
-295 -299 -303 -306 309 0
308 -310 0
-308 310 0
17 43 -313 0
-17 43 313 0
17 -43 313 0
-17 -43 -313 0
313 98 -289 0
-313 98 289 0
313 -98 289 0
-313 -98 -289 0
98 -314 0
313 -314 0
-98 -313 314 0
43 -315 0
17 -315 0
-43 -17 315 0
-314 312 0
-315 312 0
314 315 -312 0
18 44 -317 0
-18 44 317 0
18 -44 317 0
-18 -44 -317 0
317 312 -290 0
-317 312 290 0
317 -312 290 0
-317 -312 -290 0
312 -318 0
317 -318 0
-312 -317 318 0
44 -319 0
18 -319 0
-44 -18 319 0
-318 316 0
-319 316 0
318 319 -316 0
19 45 -321 0
-19 45 321 0
19 -45 321 0
-19 -45 -321 0
321 316 -291 0
-321 316 291 0
321 -316 291 0
-321 -316 -291 0
316 -322 0
321 -322 0
-316 -321 322 0
45 -323 0
19 -323 0
-45 -19 323 0
-322 320 0
-323 320 0
322 323 -320 0
20 46 -324 0
-20 46 324 0
20 -46 324 0
-20 -46 -324 0
324 320 -292 0
-324 320 292 0
324 -320 292 0
-324 -320 -292 0
320 -325 0
324 -325 0
-320 -324 325 0
46 -326 0
20 -326 0
-46 -20 326 0
-325 311 0
-326 311 0
325 326 -311 0
313 -327 0
317 -327 0
321 -327 0
324 -327 0
-313 -317 -321 -324 327 0
326 -328 0
-326 328 0
21 47 -357 0
-21 47 357 0
21 -47 357 0
-21 -47 -357 0
357 80 -347 0
-357 80 347 0
357 -80 347 0
-357 -80 -347 0
80 -358 0
357 -358 0
-80 -357 358 0
47 -359 0
21 -359 0
-47 -21 359 0
-358 356 0
-359 356 0
358 359 -356 0
22 48 -361 0
-22 48 361 0
22 -48 361 0
-22 -48 -361 0
361 356 -348 0
-361 356 348 0
361 -356 348 0
-361 -356 -348 0
356 -362 0
361 -362 0
-356 -361 362 0
48 -363 0
22 -363 0
-48 -22 363 0
-362 360 0
-363 360 0
362 363 -360 0
23 49 -365 0
-23 49 365 0
23 -49 365 0
-23 -49 -365 0
365 360 -349 0
-365 360 349 0
365 -360 349 0
-365 -360 -349 0
360 -366 0
365 -366 0
-360 -365 366 0
49 -367 0
23 -367 0
-49 -23 367 0
-366 364 0
-367 364 0
366 367 -364 0
24 50 -368 0
-24 50 368 0
24 -50 368 0
-24 -50 -368 0
368 364 -350 0
-368 364 350 0
368 -364 350 0
-368 -364 -350 0
364 -369 0
368 -369 0
-364 -368 369 0
50 -370 0
24 -370 0
-50 -24 370 0
-369 355 0
-370 355 0
369 370 -355 0
357 -371 0
361 -371 0
365 -371 0
368 -371 0
-357 -361 -365 -368 371 0
370 -372 0
-370 372 0
21 47 -375 0
-21 47 375 0
21 -47 375 0
-21 -47 -375 0
375 98 -351 0
-375 98 351 0
375 -98 351 0
-375 -98 -351 0
98 -376 0
375 -376 0
-98 -375 376 0
47 -377 0
21 -377 0
-47 -21 377 0
-376 374 0
-377 374 0
376 377 -374 0
22 48 -379 0
-22 48 379 0
22 -48 379 0
-22 -48 -379 0
379 374 -352 0
-379 374 352 0
379 -374 352 0
-379 -374 -352 0
374 -380 0
379 -380 0
-374 -379 380 0
48 -381 0
22 -381 0
-48 -22 381 0
-380 378 0
-381 378 0
380 381 -378 0
23 49 -383 0
-23 49 383 0
23 -49 383 0
-23 -49 -383 0
383 378 -353 0
-383 378 353 0
383 -378 353 0
-383 -378 -353 0
378 -384 0
383 -384 0
-378 -383 384 0
49 -385 0
23 -385 0
-49 -23 385 0
-384 382 0
-385 382 0
384 385 -382 0
24 50 -386 0
-24 50 386 0
24 -50 386 0
-24 -50 -386 0
386 382 -354 0
-386 382 354 0
386 -382 354 0
-386 -382 -354 0
382 -387 0
386 -387 0
-382 -386 387 0
50 -388 0
24 -388 0
-50 -24 388 0
-387 373 0
-388 373 0
387 388 -373 0
375 -389 0
379 -389 0
383 -389 0
386 -389 0
-375 -379 -383 -386 389 0
388 -390 0
-388 390 0
25 51 -415 0
-25 51 415 0
25 -51 415 0
-25 -51 -415 0
415 80 -409 0
-415 80 409 0
415 -80 409 0
-415 -80 -409 0
80 -416 0
415 -416 0
-80 -415 416 0
51 -417 0
25 -417 0
-51 -25 417 0
-416 414 0
-417 414 0
416 417 -414 0
26 52 -418 0
-26 52 418 0
26 -52 418 0
-26 -52 -418 0
418 414 -410 0
-418 414 410 0
418 -414 410 0
-418 -414 -410 0
414 -419 0
418 -419 0
-414 -418 419 0
52 -420 0
26 -420 0
-52 -26 420 0
-419 413 0
-420 413 0
419 420 -413 0
415 -421 0
418 -421 0
-415 -418 421 0
420 -422 0
-420 422 0
25 51 -425 0
-25 51 425 0
25 -51 425 0
-25 -51 -425 0
425 98 -411 0
-425 98 411 0
425 -98 411 0
-425 -98 -411 0
98 -426 0
425 -426 0
-98 -425 426 0
51 -427 0
25 -427 0
-51 -25 427 0
-426 424 0
-427 424 0
426 427 -424 0
26 52 -428 0
-26 52 428 0
26 -52 428 0
-26 -52 -428 0
428 424 -412 0
-428 424 412 0
428 -424 412 0
-428 -424 -412 0
424 -429 0
428 -429 0
-424 -428 429 0
52 -430 0
26 -430 0
-52 -26 430 0
-429 423 0
-430 423 0
429 430 -423 0
425 -431 0
428 -431 0
-425 -428 431 0
430 -432 0
-430 432 0
82 144 0
-82 -144 0
144 -145 0
99 -145 0
-144 -99 145 0
82 -146 0
103 -146 0
-82 -103 146 0
-145 57 0
-146 57 0
145 146 -57 0
82 147 0
-82 -147 0
147 -148 0
100 -148 0
-147 -100 148 0
82 -149 0
104 -149 0
-82 -104 149 0
-148 58 0
-149 58 0
148 149 -58 0
82 150 0
-82 -150 0
150 -151 0
101 -151 0
-150 -101 151 0
82 -152 0
105 -152 0
-82 -105 152 0
-151 59 0
-152 59 0
151 152 -59 0
82 153 0
-82 -153 0
153 -154 0
102 -154 0
-153 -102 154 0
82 -155 0
106 -155 0
-82 -106 155 0
-154 60 0
-155 60 0
154 155 -60 0
82 156 0
-82 -156 0
156 -157 0
107 -157 0
-156 -107 157 0
82 -158 0
125 -158 0
-82 -125 158 0
-157 143 0
-158 143 0
157 158 -143 0
82 -159 0
141 -159 0
-82 -141 159 0
-159 160 0
-143 160 0
159 143 -160 0
160 206 0
-160 -206 0
206 -207 0
161 -207 0
-206 -161 207 0
160 -208 0
165 -208 0
-160 -165 208 0
-207 61 0
-208 61 0
207 208 -61 0
160 209 0
-160 -209 0
209 -210 0
162 -210 0
-209 -162 210 0
160 -211 0
166 -211 0
-160 -166 211 0
-210 62 0
-211 62 0
210 211 -62 0
160 212 0
-160 -212 0
212 -213 0
163 -213 0
-212 -163 213 0
160 -214 0
167 -214 0
-160 -167 214 0
-213 63 0
-214 63 0
213 214 -63 0
160 215 0
-160 -215 0
215 -216 0
164 -216 0
-215 -164 216 0
160 -217 0
168 -217 0
-160 -168 217 0
-216 64 0
-217 64 0
216 217 -64 0
160 218 0
-160 -218 0
218 -219 0
169 -219 0
-218 -169 219 0
160 -220 0
187 -220 0
-160 -187 220 0
-219 205 0
-220 205 0
219 220 -205 0
160 -221 0
203 -221 0
-160 -203 221 0
-221 222 0
-205 222 0
221 205 -222 0
222 268 0
-222 -268 0
268 -269 0
223 -269 0
-268 -223 269 0
222 -270 0
227 -270 0
-222 -227 270 0
-269 65 0
-270 65 0
269 270 -65 0
222 271 0
-222 -271 0
271 -272 0
224 -272 0
-271 -224 272 0
222 -273 0
228 -273 0
-222 -228 273 0
-272 66 0
-273 66 0
272 273 -66 0
222 274 0
-222 -274 0
274 -275 0
225 -275 0
-274 -225 275 0
222 -276 0
229 -276 0
-222 -229 276 0
-275 67 0
-276 67 0
275 276 -67 0
222 277 0
-222 -277 0
277 -278 0
226 -278 0
-277 -226 278 0
222 -279 0
230 -279 0
-222 -230 279 0
-278 68 0
-279 68 0
278 279 -68 0
222 280 0
-222 -280 0
280 -281 0
231 -281 0
-280 -231 281 0
222 -282 0
249 -282 0
-222 -249 282 0
-281 267 0
-282 267 0
281 282 -267 0
222 -283 0
265 -283 0
-222 -265 283 0
-283 284 0
-267 284 0
283 267 -284 0
284 330 0
-284 -330 0
330 -331 0
285 -331 0
-330 -285 331 0
284 -332 0
289 -332 0
-284 -289 332 0
-331 69 0
-332 69 0
331 332 -69 0
284 333 0
-284 -333 0
333 -334 0
286 -334 0
-333 -286 334 0
284 -335 0
290 -335 0
-284 -290 335 0
-334 70 0
-335 70 0
334 335 -70 0
284 336 0
-284 -336 0
336 -337 0
287 -337 0
-336 -287 337 0
284 -338 0
291 -338 0
-284 -291 338 0
-337 71 0
-338 71 0
337 338 -71 0
284 339 0
-284 -339 0
339 -340 0
288 -340 0
-339 -288 340 0
284 -341 0
292 -341 0
-284 -292 341 0
-340 72 0
-341 72 0
340 341 -72 0
284 342 0
-284 -342 0
342 -343 0
293 -343 0
-342 -293 343 0
284 -344 0
311 -344 0
-284 -311 344 0
-343 329 0
-344 329 0
343 344 -329 0
284 -345 0
327 -345 0
-284 -327 345 0
-345 346 0
-329 346 0
345 329 -346 0
346 392 0
-346 -392 0
392 -393 0
347 -393 0
-392 -347 393 0
346 -394 0
351 -394 0
-346 -351 394 0
-393 73 0
-394 73 0
393 394 -73 0
346 395 0
-346 -395 0
395 -396 0
348 -396 0
-395 -348 396 0
346 -397 0
352 -397 0
-346 -352 397 0
-396 74 0
-397 74 0
396 397 -74 0
346 398 0
-346 -398 0
398 -399 0
349 -399 0
-398 -349 399 0
346 -400 0
353 -400 0
-346 -353 400 0
-399 75 0
-400 75 0
399 400 -75 0
346 401 0
-346 -401 0
401 -402 0
350 -402 0
-401 -350 402 0
346 -403 0
354 -403 0
-346 -354 403 0
-402 76 0
-403 76 0
402 403 -76 0
346 404 0
-346 -404 0
404 -405 0
355 -405 0
-404 -355 405 0
346 -406 0
373 -406 0
-346 -373 406 0
-405 391 0
-406 391 0
405 406 -391 0
346 -407 0
389 -407 0
-346 -389 407 0
-407 408 0
-391 408 0
407 391 -408 0
408 434 0
-408 -434 0
434 -435 0
409 -435 0
-434 -409 435 0
408 -436 0
411 -436 0
-408 -411 436 0
-435 77 0
-436 77 0
435 436 -77 0
408 437 0
-408 -437 0
437 -438 0
410 -438 0
-437 -410 438 0
408 -439 0
412 -439 0
-408 -412 439 0
-438 78 0
-439 78 0
438 439 -78 0
408 440 0
-408 -440 0
440 -441 0
413 -441 0
-440 -413 441 0
408 -442 0
423 -442 0
-408 -423 442 0
-441 433 0
-442 433 0
441 442 -433 0
408 -443 0
431 -443 0
-408 -431 443 0
-443 444 0
-433 444 0
443 433 -444 0
444 -79 0
-444 79 0
